[VALIDATOR STDOUT]
Checking plan: /home/jfan5/Safety-gen/runs/benchmark/optic/ferry_20260215_224255/ferry/optic_results/ferry-l09-c05-s9001.plan
Plan to validate:

Plan size: 17
1:
(board c3 l3)
 
2:
(sail l3 l8)
 
3:
(sail l8 l5)
 
4:
(debark c3 l5)
 
5:
(sail l5 l8)
 
6:
(board c4 l8)
 
7:
(sail l8 l6)
 
8:
(debark c4 l6)
 
9:
(sail l6 l2)
 
10:
(board c2 l2)
 
11:
(sail l2 l6)
 
12:
(debark c2 l6)
 
13:
(sail l6 l1)
 
14:
(sail l1 l0)
 
15:
(board c0 l0)
 
16:
(sail l0 l1)
 
17:
(debark c0 l1)
 

Plan Validation details
-----------------------

Checking next happening (time 1)
Deleting (at c3 l3)
Deleting (empty-ferry)
Adding (on c3)

Checking next happening (time 2)
Deleting (at-ferry l3)
Adding (at-ferry l8)

Checking next happening (time 3)
Deleting (at-ferry l8)
Adding (at-ferry l5)

Checking next happening (time 4)
Deleting (on c3)
Adding (at c3 l5)
Adding (empty-ferry)

Checking next happening (time 5)
Deleting (at-ferry l5)
Adding (at-ferry l8)

Checking next happening (time 6)
Deleting (at c4 l8)
Deleting (empty-ferry)
Adding (on c4)

Checking next happening (time 7)
Deleting (at-ferry l8)
Adding (at-ferry l6)

Checking next happening (time 8)
Deleting (on c4)
Adding (at c4 l6)
Adding (empty-ferry)

Checking next happening (time 9)
Deleting (at-ferry l6)
Adding (at-ferry l2)

Checking next happening (time 10)
Deleting (at c2 l2)
Deleting (empty-ferry)
Adding (on c2)

Checking next happening (time 11)
Deleting (at-ferry l2)
Adding (at-ferry l6)

Checking next happening (time 12)
Deleting (on c2)
Adding (at c2 l6)
Adding (empty-ferry)

Checking next happening (time 13)
Deleting (at-ferry l6)
Adding (at-ferry l1)

Checking next happening (time 14)
Deleting (at-ferry l1)
Adding (at-ferry l0)

Checking next happening (time 15)
Deleting (at c0 l0)
Deleting (empty-ferry)
Adding (on c0)

Checking next happening (time 16)
Deleting (at-ferry l0)
Adding (at-ferry l1)

Checking next happening (time 17)
Deleting (on c0)
Adding (at c0 l1)
Adding (empty-ferry)
Plan executed successfully - checking goal
Plan valid
Final value: 17 

Successful plans:
Value: 17
 /home/jfan5/Safety-gen/runs/benchmark/optic/ferry_20260215_224255/ferry/optic_results/ferry-l09-c05-s9001.plan 17
